






























































































35 45 18 23 
69 73 12 56 
60 66 17 20 
7 62 1 31 
25 0 46 72 
75 44 55 
37 8 58 36 
57 24 40 68 
33 49 16 71 
5 15 38 54 
53 3 27 76 
22 52 59 19 
32 41 14 2 
42 39 26 13 
6 51 48 65 47 
11 70 34 4 
74 28 9 64 
30 61 10 
21 63 67 
50 29 43 
